Route #1: 1 30 22 31 47 14 5 25 10 29 28 1
Route #2: 1 33 23 2 6 13 32 44 24 1
Route #3: 1 15 18 42 3 11 34 1
Route #4: 1 19 45 36 37 8 41 46 35 1
Route #5: 1 40 27 21 12 43 16 9 1
Route #6: 1 4 38 39 20 26 7 1
Route #7: 1 17 48 1
cost: 1238
